172550 -1 418541 9709404 177176 0.98
172366 -1 571374 13337818 178922 0.99
172566 -1 395938 9175362 179830 0.99
172184 -1 364075 8412687 178530 0.97
172732 -1 497752 11642558 178602 1
172500 -1 455824 10651701 178030 1
172806 -1 404556 9383086 177194 0.98
171890 -1 419719 9814947 178990 1
172178 -1 368309 8597466 178462 0.99
172674 -1 474795 11483573 179148 0.99
